W=7;
H=7;

MAX_TIME=51;
MAX_TRACKS=18;

TARGET=(5,7);

TRAINS=[(1,3,LEFT),(1,7,LEFT)];

INIT_POS=[
(1,3,STRAIGHT_RL),
(1,4,STRAIGHT_RL),
(1,5,STRAIGHT_RL),
(1,6,STRAIGHT_RL),
(1,7,STRAIGHT_RL),
(2,3,STRAIGHT_RL),
(4,1,EMPTY),
(4,2,EMPTY),
(4,3,EMPTY),
(4,4,EMPTY),
(4,5,EMPTY),
(4,6,EMPTY),
(4,7,EMPTY),
(5,2,STRAIGHT_RL),
(5,3,STRAIGHT_RL),
(5,4,STRAIGHT_RL),
(5,7,STRAIGHT_RL),
(7,4,STRAIGHT_RL),
];
TUNNEL_PAIRS=[
  (3, 1, RIGHT, 5, 1, RIGHT),
];

GATES=[
(1,4,1,true),
(1,6,1,false),
(5,2,1,false),
(5,4,1,true),
];
ACTIVATIONS=[
(2,3,1),
(7,4,1),
];

DSWITCHES=[];

STATIONS=[];
